instanceArrivalTimesCSV: 33304,33325
instanceRunTimesCSV: 502,3598
instanceMaximumExpectedWaitingTimeCSV: 25,16
nextEndTimeCSV: 33326
machines: 1
Model 1
Tried aggregator 2 times.
MIP Presolve eliminated 6 rows and 2 columns.
MIP Presolve modified 2 coefficients.
Aggregator did 8 substitutions.
Reduced MIP has 6 rows, 10 columns, and 16 nonzeros.
Reduced MIP has 6 binaries, 2 generals, 0 SOSs, and 7 indicators.
Presolve time = 0.00 sec. (0.03 ticks)
Probing time = 0.00 sec. (0.00 ticks)
Tried aggregator 1 time.
Reduced MIP has 6 rows, 10 columns, and 16 nonzeros.
Reduced MIP has 6 binaries, 2 generals, 0 SOSs, and 7 indicators.
Presolve time = 0.00 sec. (0.01 ticks)
Probing time = 0.00 sec. (0.00 ticks)
Clique table members: 2.
MIP emphasis: balance optimality and feasibility.
MIP search method: dynamic search.
Parallel mode: none, using 1 thread.
Root relaxation solution time = 0.00 sec. (0.01 ticks)

        Nodes                                         Cuts/
   Node  Left     Objective  IInf  Best Integer    Best Bound    ItCnt     Gap

      0     0     3096.0000     4                   3096.0000        0         
*     0+    0                            0.0000     3096.0000              --- 

Repeating presolve.
Tried aggregator 1 time.
MIP Presolve eliminated 6 rows and 10 columns.
All rows and columns eliminated.
Presolve time = 0.00 sec. (0.01 ticks)
Represolve time = 0.00 sec. (0.01 ticks)

Root node processing (before b&c):
  Real time             =    0.01 sec. (0.18 ticks)
Sequential b&c:
  Real time             =    0.00 sec. (0.00 ticks)
                          ------------
Total (root+branch&cut) =    0.01 sec. (0.18 ticks)

Obj=3096.0
Best Relaxation Obj=3096.0
GAP=0.0

PredictedServiceTime,ArrivalTime,MIPPredictedTimeServiceBegins,MIPPredictedTimeServiceEnds,MIPWaitingTimeInQueue,MIPAttended,MIPVM
502,33304,33327,33829,23,1,1
3598,33325,33830,33830,505,0,1
instanceArrivalTimesCSV: 35045,35026
instanceRunTimesCSV: 663,3598
instanceMaximumExpectedWaitingTimeCSV: 24,26
nextEndTimeCSV: 35046
machines: 1
Model 1
Tried aggregator 2 times.
MIP Presolve eliminated 6 rows and 2 columns.
MIP Presolve modified 2 coefficients.
Aggregator did 8 substitutions.
Reduced MIP has 6 rows, 10 columns, and 16 nonzeros.
Reduced MIP has 6 binaries, 2 generals, 0 SOSs, and 7 indicators.
Presolve time = 0.00 sec. (0.03 ticks)
Probing time = 0.00 sec. (0.00 ticks)
Tried aggregator 1 time.
Reduced MIP has 6 rows, 10 columns, and 16 nonzeros.
Reduced MIP has 6 binaries, 2 generals, 0 SOSs, and 7 indicators.
Presolve time = 0.00 sec. (0.01 ticks)
Probing time = 0.00 sec. (0.00 ticks)
Clique table members: 2.
MIP emphasis: balance optimality and feasibility.
MIP search method: dynamic search.
Parallel mode: none, using 1 thread.
Root relaxation solution time = 0.00 sec. (0.01 ticks)

        Nodes                                         Cuts/
   Node  Left     Objective  IInf  Best Integer    Best Bound    ItCnt     Gap

      0     0     2935.0000     4                   2935.0000        0         
*     0+    0                            0.0000     2935.0000              --- 

Repeating presolve.
Tried aggregator 1 time.
MIP Presolve eliminated 2 rows and 3 columns.
Reduced MIP has 4 rows, 7 columns, and 11 nonzeros.
Reduced MIP has 3 binaries, 2 generals, 0 SOSs, and 5 indicators.
Presolve time = 0.00 sec. (0.01 ticks)
Probing fixed 1 vars, tightened 2 bounds.
Probing changed sense of 1 constraints.
Probing time = 0.00 sec. (0.00 ticks)
Tried aggregator 2 times.
MIP Presolve eliminated 2 rows and 2 columns.
MIP Presolve added 1 rows and 1 columns.
MIP Presolve modified 1 coefficients.
Aggregator did 2 substitutions.
Reduced MIP has 1 rows, 4 columns, and 3 nonzeros.
Reduced MIP has 1 binaries, 2 generals, 0 SOSs, and 4 indicators.
Presolve time = 0.00 sec. (0.01 ticks)
Probing time = 0.00 sec. (0.00 ticks)
Tried aggregator 1 time.
MIP Presolve eliminated 1 rows and 1 columns.
MIP Presolve added 1 rows and 1 columns.
Reduced MIP has 1 rows, 4 columns, and 3 nonzeros.
Reduced MIP has 1 binaries, 2 generals, 0 SOSs, and 4 indicators.
Presolve time = 0.00 sec. (0.00 ticks)
Represolve time = 0.00 sec. (0.04 ticks)
Probing time = 0.00 sec. (0.00 ticks)
MIP emphasis: balance optimality and feasibility.
MIP search method: dynamic search.
Parallel mode: none, using 1 thread.
Root relaxation solution time = 0.00 sec. (0.00 ticks)

        Nodes                                         Cuts/
   Node  Left     Objective  IInf  Best Integer    Best Bound    ItCnt     Gap

*     0+    0                            0.0000     2935.0000              --- 
*     0     0      integral     0     2935.0000     2935.0000        0    0.00%
Elapsed time = 0.02 sec. (0.22 ticks, tree = 0.00 MB, solutions = 2)

Root node processing (before b&c):
  Real time             =    0.02 sec. (0.22 ticks)
Sequential b&c:
  Real time             =    0.00 sec. (0.00 ticks)
                          ------------
Total (root+branch&cut) =    0.02 sec. (0.22 ticks)

Obj=2935.0
Best Relaxation Obj=2935.0
GAP=0.0

PredictedServiceTime,ArrivalTime,MIPPredictedTimeServiceBegins,MIPPredictedTimeServiceEnds,MIPWaitingTimeInQueue,MIPAttended,MIPVM
663,35045,35069,35732,24,1,1
3598,35026,35053,35053,27,0,1
instanceArrivalTimesCSV: 36553,36552
instanceRunTimesCSV: 16,3598
instanceMaximumExpectedWaitingTimeCSV: 20,12
nextEndTimeCSV: 36559
machines: 1
Model 1
Tried aggregator 2 times.
MIP Presolve eliminated 6 rows and 2 columns.
MIP Presolve modified 2 coefficients.
Aggregator did 8 substitutions.
Reduced MIP has 6 rows, 10 columns, and 16 nonzeros.
Reduced MIP has 6 binaries, 2 generals, 0 SOSs, and 7 indicators.
Presolve time = 0.00 sec. (0.03 ticks)
Probing time = 0.00 sec. (0.00 ticks)
Tried aggregator 1 time.
Reduced MIP has 6 rows, 10 columns, and 16 nonzeros.
Reduced MIP has 6 binaries, 2 generals, 0 SOSs, and 7 indicators.
Presolve time = 0.00 sec. (0.01 ticks)
Probing time = 0.00 sec. (0.00 ticks)
Clique table members: 2.
MIP emphasis: balance optimality and feasibility.
MIP search method: dynamic search.
Parallel mode: none, using 1 thread.
Root relaxation solution time = 0.00 sec. (0.01 ticks)

        Nodes                                         Cuts/
   Node  Left     Objective  IInf  Best Integer    Best Bound    ItCnt     Gap

      0     0     3582.0000     4                   3582.0000        0         
*     0+    0                            0.0000     3582.0000              --- 

Repeating presolve.
Tried aggregator 1 time.
MIP Presolve eliminated 2 rows and 3 columns.
Reduced MIP has 4 rows, 7 columns, and 11 nonzeros.
Reduced MIP has 3 binaries, 2 generals, 0 SOSs, and 5 indicators.
Presolve time = 0.00 sec. (0.01 ticks)
Probing fixed 1 vars, tightened 2 bounds.
Probing changed sense of 1 constraints.
Probing time = 0.00 sec. (0.00 ticks)
Tried aggregator 2 times.
MIP Presolve eliminated 2 rows and 2 columns.
MIP Presolve added 1 rows and 1 columns.
MIP Presolve modified 1 coefficients.
Aggregator did 2 substitutions.
Reduced MIP has 1 rows, 4 columns, and 3 nonzeros.
Reduced MIP has 1 binaries, 2 generals, 0 SOSs, and 4 indicators.
Presolve time = 0.00 sec. (0.01 ticks)
Probing time = 0.00 sec. (0.00 ticks)
Tried aggregator 1 time.
MIP Presolve eliminated 1 rows and 1 columns.
MIP Presolve added 1 rows and 1 columns.
Reduced MIP has 1 rows, 4 columns, and 3 nonzeros.
Reduced MIP has 1 binaries, 2 generals, 0 SOSs, and 4 indicators.
Presolve time = 0.00 sec. (0.00 ticks)
Represolve time = 0.00 sec. (0.04 ticks)
Probing time = 0.00 sec. (0.00 ticks)
MIP emphasis: balance optimality and feasibility.
MIP search method: dynamic search.
Parallel mode: none, using 1 thread.
Root relaxation solution time = 0.00 sec. (0.00 ticks)

        Nodes                                         Cuts/
   Node  Left     Objective  IInf  Best Integer    Best Bound    ItCnt     Gap

*     0+    0                            0.0000     3582.0000              --- 
*     0     0      integral     0     3582.0000     3582.0000        0    0.00%
Elapsed time = 0.01 sec. (0.22 ticks, tree = 0.00 MB, solutions = 2)

Root node processing (before b&c):
  Real time             =    0.01 sec. (0.22 ticks)
Sequential b&c:
  Real time             =    0.00 sec. (0.00 ticks)
                          ------------
Total (root+branch&cut) =    0.01 sec. (0.22 ticks)

Obj=3582.0
Best Relaxation Obj=3582.0
GAP=0.0

PredictedServiceTime,ArrivalTime,MIPPredictedTimeServiceBegins,MIPPredictedTimeServiceEnds,MIPWaitingTimeInQueue,MIPAttended,MIPVM
16,36553,36573,36589,20,1,1
3598,36552,36565,36565,13,0,1
instanceArrivalTimesCSV: 43866,43873
instanceRunTimesCSV: 3,4
instanceMaximumExpectedWaitingTimeCSV: 14,23
nextEndTimeCSV: 43878
machines: 1
Model 1
Tried aggregator 2 times.
MIP Presolve eliminated 6 rows and 2 columns.
MIP Presolve modified 2 coefficients.
Aggregator did 8 substitutions.
Reduced MIP has 6 rows, 10 columns, and 16 nonzeros.
Reduced MIP has 6 binaries, 2 generals, 0 SOSs, and 7 indicators.
Presolve time = 0.00 sec. (0.03 ticks)
Probing time = 0.00 sec. (0.00 ticks)
Tried aggregator 1 time.
Reduced MIP has 6 rows, 10 columns, and 16 nonzeros.
Reduced MIP has 6 binaries, 2 generals, 0 SOSs, and 7 indicators.
Presolve time = 0.00 sec. (0.01 ticks)
Probing time = 0.00 sec. (0.00 ticks)
Clique table members: 2.
MIP emphasis: balance optimality and feasibility.
MIP search method: dynamic search.
Parallel mode: none, using 1 thread.
Root relaxation solution time = 0.00 sec. (0.01 ticks)

        Nodes                                         Cuts/
   Node  Left     Objective  IInf  Best Integer    Best Bound    ItCnt     Gap

      0     0     7189.0000     4                   7189.0000        0         
*     0+    0                            0.0000     7189.0000              --- 
*     0+    0                         7189.0000     7189.0000             0.00%
      0     0        cutoff           7189.0000     7189.0000        0    0.00%
Elapsed time = 0.01 sec. (0.15 ticks, tree = 0.00 MB, solutions = 2)

Root node processing (before b&c):
  Real time             =    0.01 sec. (0.15 ticks)
Sequential b&c:
  Real time             =    0.00 sec. (0.00 ticks)
                          ------------
Total (root+branch&cut) =    0.01 sec. (0.15 ticks)

Obj=7189.0
Best Relaxation Obj=7189.0
GAP=0.0

PredictedServiceTime,ArrivalTime,MIPPredictedTimeServiceBegins,MIPPredictedTimeServiceEnds,MIPWaitingTimeInQueue,MIPAttended,MIPVM
3,43866,43879,43882,13,1,1
4,43873,43896,43900,23,1,1
